qbf_easy_train/easy_5779_SAT.qdimacs
p cnf 25 64
a 18 23 0
e 1 2 3 4 5 6 7 8 9 10 11 12 13 14 15 16 17 19 20 21 22 24 25 0
3 1 0
3 2 0
-1 -2 -3 0
5 -4 0
5 2 0
4 -2 -5 0
-4 -5 -6 0
4 5 -6 0
-4 5 6 0
4 -5 6 0
-7 -6 0
-7 -1 0
6 1 7 0
3 7 -8 0
-3 -7 -8 0
3 -7 8 0
-3 7 8 0
-10 -9 0
-10 -4 0
9 4 10 0
11 8 0
11 10 0
-8 -10 -11 0
14 13 0
14 -2 0
-13 2 -14 0
-15 14 0
-15 -5 0
-14 5 15 0
-16 12 0
-16 -15 0
-12 15 16 0
1 9 -17 0
-1 -9 -17 0
1 -9 17 0
-1 9 17 0
-17 18 -19 0
17 -18 -19 0
-17 -18 19 0
17 18 19 0
-20 -16 0
-20 -19 0
16 19 20 0
-11 20 -21 0
11 -20 -21 0
-11 -20 21 0
11 20 21 0
2 22 -23 0
-2 -22 -23 0
2 -22 23 0
-2 22 23 0
-24 13 0
-24 23 0
-13 -23 24 0
25 21 0
25 -24 0
-21 24 -25 0
-5 4 22 -24 -8 0
2 21 1 -19 -11 -17 13 0
-14 21 9 23 -1 -22 0
24 -4 -15 18 -13 0
-15 -9 0
19 -23 -1 -17 -14 -16 22 -9 0
25 0
