sat_easy_train/easy_5779_SAT.dimacs
p cnf 102 323
4 -2 0
4 -3 0
2 3 -4 0
5 -1 0
5 4 0
1 -4 -5 0
6 -7 -8 0
-6 7 -8 0
6 7 8 0
-6 -7 8 0
9 -5 0
9 8 0
5 -8 -9 0
10 -9 0
10 -9 0
9 -10 0
-7 -10 -11 0
7 10 -11 0
-7 10 11 0
7 -10 11 0
-11 12 -13 0
11 -12 -13 0
-11 -12 13 0
11 12 13 0
9 13 -14 0
-9 -13 -14 0
9 -13 14 0
-9 13 14 0
16 -8 0
16 -15 0
8 15 -16 0
16 -15 -17 0
-16 15 -17 0
16 15 17 0
-16 -15 17 0
18 -14 0
18 -17 0
14 17 -18 0
-21 6 0
-21 -20 0
-6 20 21 0
-1 -21 -22 0
1 21 -22 0
-1 21 22 0
1 -21 22 0
23 19 0
23 -22 0
-19 22 -23 0
-12 -7 -24 0
12 7 -24 0
-12 7 24 0
12 -7 24 0
-25 23 0
-25 24 0
-23 -24 25 0
-26 18 0
-26 25 0
-18 -25 26 0
27 -8 0
27 -6 0
8 6 -27 0
7 28 -29 0
-7 -28 -29 0
7 -28 29 0
-7 28 29 0
-30 -6 0
-30 7 0
6 -7 30 0
31 -12 0
31 -30 0
12 30 -31 0
-32 -29 0
-32 31 0
29 -31 32 0
33 27 0
33 -32 0
-27 32 -33 0
34 4 0
34 22 0
-4 -22 -34 0
-36 35 0
-36 12 0
-35 -12 36 0
-38 36 0
-38 37 0
-36 -37 38 0
39 -30 0
39 38 0
30 -38 -39 0
-40 -34 0
-40 -39 0
34 39 40 0
41 9 0
41 -8 0
-9 8 -41 0
-42 -10 0
-42 41 0
10 -41 42 0
10 35 -43 0
-10 -35 -43 0
10 -35 43 0
-10 35 43 0
-44 -43 0
-44 29 0
43 -29 44 0
44 45 -46 0
-44 -45 -46 0
44 -45 46 0
-44 45 46 0
49 48 0
49 12 0
-48 -12 -49 0
-50 -34 0
-50 -49 0
34 49 50 0
-51 8 0
-51 -12 0
-8 12 51 0
-52 10 0
-52 -51 0
-10 51 52 0
-50 52 -53 0
50 -52 -53 0
-50 -52 53 0
50 52 53 0
54 47 0
54 -53 0
-47 53 -54 0
46 -54 -55 0
-46 54 -55 0
46 54 55 0
-46 -54 55 0
56 -42 0
56 55 0
42 -55 -56 0
-57 28 0
-57 -8 0
-28 8 57 0
57 -38 -58 0
-57 38 -58 0
57 38 58 0
-57 -38 58 0
56 58 -59 0
-56 -58 -59 0
56 -58 59 0
-56 58 59 0
-60 -40 0
-60 59 0
40 -59 60 0
61 -1 0
61 -20 0
1 20 -61 0
62 -60 0
62 61 0
60 -61 -62 0
-63 33 0
-63 62 0
-33 -62 63 0
-64 9 0
-64 28 0
-9 -28 64 0
65 63 0
65 64 0
-63 -64 -65 0
-67 8 0
-67 -66 0
-8 66 67 0
-1 -43 -68 0
1 43 -68 0
-1 43 68 0
1 -43 68 0
-69 6 0
-69 15 0
-6 -15 69 0
68 -69 -70 0
-68 69 -70 0
68 69 70 0
-68 -69 70 0
-71 43 0
-71 -1 0
-43 1 71 0
72 -71 0
72 11 0
71 -11 -72 0
73 -3 0
73 -7 0
3 7 -73 0
-73 53 -74 0
73 -53 -74 0
-73 -53 74 0
73 53 74 0
75 20 0
75 -8 0
-20 8 -75 0
-74 -75 -76 0
74 75 -76 0
-74 75 76 0
74 -75 76 0
77 -49 0
77 13 0
49 -13 -77 0
-78 76 0
-78 77 0
-76 -77 78 0
79 72 0
79 78 0
-72 -78 -79 0
80 -70 0
80 -79 0
70 79 -80 0
-81 67 0
-81 -80 0
-67 80 81 0
-82 29 0
-82 -10 0
-29 10 82 0
83 -41 0
83 -11 0
41 11 -83 0
84 -82 0
84 -83 0
82 83 -84 0
85 -81 0
85 -84 0
81 84 -85 0
86 -47 0
86 48 0
47 -48 -86 0
-36 -86 -87 0
36 86 -87 0
-36 86 87 0
36 -86 87 0
-88 39 0
-88 -71 0
-39 71 88 0
-89 12 0
-89 13 0
-12 -13 89 0
90 -6 0
90 -13 0
6 13 -90 0
-91 89 0
-91 90 0
-89 -90 91 0
-92 -88 0
-92 -91 0
88 91 92 0
87 92 -93 0
-87 -92 -93 0
87 -92 93 0
-87 92 93 0
-94 20 0
-94 -44 0
-20 44 94 0
95 93 0
95 -94 0
-93 94 -95 0
-96 57 0
-96 49 0
-57 -49 96 0
12 96 -97 0
-12 -96 -97 0
12 -96 97 0
-12 96 97 0
98 -97 0
98 73 0
97 -73 -98 0
99 -95 0
99 98 0
95 -98 -99 0
-85 99 -100 0
85 -99 -100 0
-85 -99 100 0
85 99 100 0
101 -65 0
101 100 0
65 -100 -101 0
102 -26 0
102 101 0
26 -101 -102 0
-46 85 -32 0
-51 -81 -69 -49 -92 -93 0
21 -64 -59 -58 -36 -89 0
-21 -95 -22 0
62 75 0
-13 3 -88 81 -57 -79 0
-26 -48 -60 -90 23 76 0
51 -46 99 -49 0
80 68 22 0
-54 72 0
43 -90 0
58 30 -23 42 22 0
-78 39 0
30 61 -81 -70 0
-61 -89 49 0
50 -24 68 0
-96 99 -21 -15 0
59 39 0
-27 17 -12 0
34 12 88 -31 51 0
-16 -37 54 0
96 -39 -62 -52 0
23 95 -48 -30 0
-100 97 -32 78 0
-101 -47 -61 29 -23 59 0
-39 -87 -51 0
-27 -29 -38 0
4 -13 0
-93 26 0
59 -23 81 4 85 83 0
-25 -96 0
-79 -80 32 0
88 -19 0
10 12 28 -18 33 0
-81 -69 0
-86 14 -45 0
66 -54 -69 0
99 -19 98 90 85 -67 0
81 -100 30 48 0
-29 -92 -38 30 39 0
-91 45 -92 0
98 -7 0
102 0
